
Gurobi 9.0.2 (win64) logging started Sat Oct 10 17:55:55 2020

Changed value of parameter logfile to result\v6.2-20201010T1221\scenario_2030_eff065_cab5000.log
   Prev:   Default: 
Gurobi Optimizer version 9.0.2 build v9.0.2rc0 (win64)
Optimize a model with 1384150 rows, 884815 columns and 3912197 nonzeros
Model fingerprint: 0x528a4a06
Coefficient statistics:
  Matrix range     [1e-07, 5e+05]
  Objective range  [1e+00, 1e+00]
  Bounds range     [0e+00, 0e+00]
  RHS range        [2e-05, 3e+08]
Warning: Model contains large matrix coefficient range
         Consider reformulating model or setting NumericFocus parameter
         to avoid numerical issues.

Concurrent LP optimizer: primal simplex, dual simplex, and barrier
Showing barrier log only...

Presolve removed 1129315 rows and 656241 columns
Presolve time: 3.38s
Presolved: 254835 rows, 342440 columns, 891938 nonzeros

Ordering time: 0.13s

Barrier statistics:
 Dense cols : 9
 AA' NZ     : 8.194e+05
 Factor NZ  : 4.461e+06 (roughly 300 MBytes of memory)
 Factor Ops : 1.125e+08 (less than 1 second per iteration)
 Threads    : 30

                  Objective                Residual
Iter       Primal          Dual         Primal    Dual     Compl     Time
   0  -2.11403191e+16 -1.58515909e+15  6.34e+06 1.56e+04  2.54e+12     4s
   1  -3.21249529e+15 -1.58990604e+15  9.56e+05 4.74e+06  8.37e+11     4s
   2  -1.36159989e+15 -1.27782174e+15  4.03e+05 7.46e+05  2.19e+11     5s
   3  -4.75131982e+14 -1.05033828e+15  1.38e+05 1.95e+05  6.98e+10     5s
   4  -1.10766714e+14 -6.38908759e+14  3.08e+04 4.43e+04  1.62e+10     5s
   5  -3.58216730e+13 -3.93085391e+14  1.01e+04 1.74e+04  5.94e+09     6s
   6  -1.56857367e+13 -2.85031225e+14  4.74e+03 8.76e+03  2.96e+09     6s
   7  -6.66439467e+12 -1.52351550e+14  2.21e+03 1.51e+03  9.54e+08     6s
   8  -7.38506871e+11 -7.10908807e+13  4.78e+02 2.00e+02  2.09e+08     7s
   9   7.11081978e+11 -8.64034271e+12  1.96e+00 1.75e+00  1.39e+07     7s
  10   2.12801710e+11 -1.19120850e+12  2.96e-01 1.17e-01  2.05e+06     7s
  11   6.54040578e+10 -4.94654351e+11  6.63e-02 9.44e-09  8.12e+05     8s
  12   3.35007897e+10 -2.23736225e+11  2.94e-02 9.31e-09  3.73e+05     8s
  13   2.14757891e+10 -1.00619354e+11  1.52e-02 7.45e-09  1.77e+05     8s
  14   2.15219320e+10 -8.79471528e+10  1.37e-02 1.12e-08  1.59e+05     8s
  15   1.71915478e+10 -3.93243764e+10  9.58e-03 1.12e-08  8.20e+04     9s
  16   1.17994678e+10 -2.74136002e+09  2.53e-03 1.49e-08  2.11e+04     9s
  17   9.73276591e+09  3.04176384e+09  1.16e-03 9.31e-09  9.69e+03     9s
  18   9.60325926e+09  4.56959334e+09  1.08e-03 7.45e-09  7.29e+03     9s
  19   9.18221650e+09  5.47774296e+09  7.93e-04 5.59e-09  5.36e+03    10s
  20   8.97012304e+09  5.61955647e+09  6.52e-04 5.59e-09  4.85e+03    10s
  21   8.84262114e+09  5.78470289e+09  5.63e-04 7.45e-09  4.42e+03    10s
  22   8.53523258e+09  6.47854713e+09  3.60e-04 5.59e-09  2.97e+03    11s
  23   8.38667688e+09  6.92386020e+09  2.64e-04 3.73e-09  2.12e+03    11s
  24   8.22834579e+09  7.18526010e+09  1.61e-04 3.73e-09  1.51e+03    11s
  25   8.10085416e+09  7.56240583e+09  8.41e-05 2.79e-09  7.78e+02    12s
  26   8.05714828e+09  7.70815896e+09  5.96e-05 2.79e-09  5.04e+02    12s
  27   8.01358679e+09  7.75775139e+09  3.63e-05 1.86e-09  3.70e+02    12s
  28   7.99101031e+09  7.82489465e+09  2.48e-05 1.86e-09  2.40e+02    13s
  29   7.98048346e+09  7.84136957e+09  1.96e-05 1.86e-09  2.01e+02    13s
  30   7.96321781e+09  7.87051385e+09  1.12e-05 1.86e-09  1.34e+02    13s
  31   7.95662754e+09  7.89359114e+09  8.10e-06 1.86e-09  9.11e+01    13s
  32   7.94932546e+09  7.90353807e+09  4.80e-06 1.86e-09  6.61e+01    14s
  33   7.94457549e+09  7.91948737e+09  2.61e-06 1.86e-09  3.62e+01    14s
  34   7.94062108e+09  7.92850707e+09  9.16e-07 1.86e-09  1.75e+01    14s
  35   7.93925947e+09  7.93321712e+09  3.96e-07 1.86e-09  8.73e+00    15s
  36   7.93880718e+09  7.93575540e+09  2.33e-07 2.79e-09  4.41e+00    15s
  37   7.93846084e+09  7.93667601e+09  2.20e-07 1.86e-09  2.58e+00    15s
  38   7.93831915e+09  7.93725328e+09  1.72e-07 1.86e-09  1.54e+00    15s
  39   7.93822193e+09  7.93750895e+09  2.27e-07 1.86e-09  1.03e+00    16s
  40   7.93818333e+09  7.93782430e+09  2.16e-07 1.86e-09  5.18e-01    16s
  41   7.93816535e+09  7.93805463e+09  2.60e-07 1.86e-09  1.60e-01    16s
  42   7.93815801e+09  7.93812475e+09  4.79e-08 2.79e-09  4.80e-02    16s
  43   7.93815610e+09  7.93813808e+09  6.76e-10 2.87e-09  2.60e-02    17s
  44   7.93815549e+09  7.93815497e+09  9.17e-09 2.79e-09  7.61e-04    17s
  45   7.93815547e+09  7.93815545e+09  2.71e-05 5.69e-07  2.97e-05    17s
  46   7.93815547e+09  7.93815545e+09  2.71e-05 5.69e-07  2.97e-05    18s

Barrier solved model in 46 iterations and 17.70 seconds
Optimal objective 7.93815547e+09

Crossover log...

   77116 DPushes remaining with DInf 0.0000000e+00                18s
    6481 DPushes remaining with DInf 0.0000000e+00                20s
       0 DPushes remaining with DInf 0.0000000e+00                23s
Warning: Markowitz tolerance tightened to 0.5

  111422 PPushes remaining with PInf 1.7211714e-02                24s
    1501 PPushes remaining with PInf 1.0310395e+00                25s
       0 PPushes remaining with PInf 0.0000000e+00                26s

  Push phase complete: Pinf 0.0000000e+00, Dinf 2.0894524e+05     26s

Iteration    Objective       Primal Inf.    Dual Inf.      Time
  139490    7.9381555e+09   0.000000e+00   2.089452e+05     26s
  140123    7.9381555e+09   0.000000e+00   2.000000e-06     31s
Extra one simplex iteration after uncrush
  140124    7.9381555e+09   0.000000e+00   0.000000e+00     31s

Solved with barrier
Solved in 140124 iterations and 31.46 seconds
Optimal objective  7.938155459e+09
Warning: unscaled primal violation = 0.000876203 and residual = 0.000876203
